10
0 4 0 1 0 0 5 9 3 0
4 0 1 0 7 5 9 3 1 0
0 1 0 7 5 9 3 1 2 8
1 0 7 0 9 3 1 2 8 4
0 7 5 9 0 1 2 8 4 0
0 5 9 3 1 0 8 4 1 1
5 9 3 1 2 8 0 1 1 0
9 3 1 2 8 4 1 0 0 0
3 1 2 8 4 1 1 0 0 1
0 0 8 4 0 1 0 0 1 0